168
Lattice="73.67117275280894 0.0 0.0 0.0 24.334164325842686 0.0 0.0 0.0 15.0" Properties=species:S:1:pos:R:3:tags:I:1 pbc="T T T"
C        9.64700843       8.44898174       7.50000000        0
C        8.21600421       8.44898174       7.50000000        0
C        7.50000000       9.68818118       7.50000000        0
C        8.21600421      10.92738062       7.50000000        0
C        9.64700843      10.92738062       7.50000000        0
C       10.36200843       9.68818118       7.50000000        0
C        8.21600421      13.40678371       7.50000000        0
C        9.64700843      13.40678371       7.50000000        0
C       10.36200843      12.16758427       7.50000000        0
C        7.50000000      14.64598315       7.50000000        0
C        8.21600421      15.88518258       7.50000000        0
C        9.64700843      15.88518258       7.50000000        0
C       10.36200843      14.64598315       7.50000000        0
C       13.94002107       8.44898174       7.50000000        0
C       12.50801264       8.44898174       7.50000000        0
C       11.79301264       9.68818118       7.50000000        0
C       12.50901685      10.92738062       7.50000000        0
C       13.93901685      10.92738062       7.50000000        0
C       14.65502107       9.68818118       7.50000000        0
C       11.79301264      12.16758427       7.50000000        0
C       12.50901685      13.40678371       7.50000000        0
C       13.93901685      13.40678371       7.50000000        0
C       14.65502107      12.16758427       7.50000000        0
C       11.79301264      14.64598315       7.50000000        0
C       12.50901685      15.88518258       7.50000000        0
C       13.93901685      15.88518258       7.50000000        0
C       14.65502107      14.64598315       7.50000000        0
C       18.23202949       8.44898174       7.50000000        0
C       16.80102528       8.44898174       7.50000000        0
C       16.08602528       9.68818118       7.50000000        0
C       16.80102528      10.92738062       7.50000000        0
C       18.23202949      10.92738062       7.50000000        0
C       18.94803371       9.68818118       7.50000000        0
C       16.08602528      12.16758427       7.50000000        0
C       16.80102528      13.40678371       7.50000000        0
C       18.23202949      13.40678371       7.50000000        0
C       18.94803371      12.16758427       7.50000000        0
C       16.08602528      14.64598315       7.50000000        0
C       16.80102528      15.88518258       7.50000000        0
C       18.23202949      15.88518258       7.50000000        0
C       18.94803371      14.64598315       7.50000000        0
C       22.52504213       8.44898174       7.50000000        0
C       21.09403792       8.44898174       7.50000000        0
C       20.37903792       9.68818118       7.50000000        0
C       21.09403792      10.92738062       7.50000000        0
C       22.52504213      10.92738062       7.50000000        0
C       23.24104635       9.68818118       7.50000000        0
C       20.37903792      12.16758427       7.50000000        0
C       21.09403792      13.40678371       7.50000000        0
C       22.52504213      13.40678371       7.50000000        0
C       23.24104635      12.16758427       7.50000000        0
C       20.37903792      14.64598315       7.50000000        0
C       21.09403792      15.88518258       7.50000000        0
C       22.52504213      15.88518258       7.50000000        0
C       23.24104635      14.64598315       7.50000000        0
C       26.81805478       8.44898174       7.50000000        0
C       25.38705056       8.44898174       7.50000000        0
C       24.67205056       9.68818118       7.50000000        0
C       25.38705056      10.92738062       7.50000000        0
C       26.81805478      10.92738062       7.50000000        0
C       27.53405899       9.68818118       7.50000000        0
C       24.67205056      12.16758427       7.50000000        0
C       25.38705056      13.40678371       7.50000000        0
C       26.81805478      13.40678371       7.50000000        0
C       27.53405899      12.16758427       7.50000000        0
C       24.67205056      14.64598315       7.50000000        0
C       25.38705056      15.88518258       7.50000000        0
C       26.81805478      15.88518258       7.50000000        0
C       27.53405899      14.64598315       7.50000000        0
C       31.11106742       8.44898174       7.50000000        0
C       29.68006320       8.44898174       7.50000000        0
C       28.96506320       9.68818118       7.50000000        0
C       29.68006320      10.92738062       7.50000000        0
C       31.11106742      10.92738062       7.50000000        0
C       31.82707163       9.68818118       7.50000000        0
C       28.96506320      12.16758427       7.50000000        0
C       29.68006320      13.40678371       7.50000000        0
C       31.11106742      13.40678371       7.50000000        0
C       31.82707163      12.16758427       7.50000000        0
C       28.96506320      14.64598315       7.50000000        0
C       29.68006320      15.88518258       7.50000000        0
C       31.11106742      15.88518258       7.50000000        0
C       31.82707163      14.64598315       7.50000000        0
C       35.40408006       8.44898174       7.50000000        0
C       33.97307584       8.44898174       7.50000000        0
C       33.25807584       9.68818118       7.50000000        0
C       33.97307584      10.92738062       7.50000000        0
C       35.40408006      10.92738062       7.50000000        0
C       36.12008427       9.68818118       7.50000000        0
C       33.25807584      12.16758427       7.50000000        0
C       33.97307584      13.40678371       7.50000000        0
C       35.40408006      13.40678371       7.50000000        0
C       36.12008427      12.16758427       7.50000000        0
C       33.25807584      14.64598315       7.50000000        0
C       33.97307584      15.88518258       7.50000000        0
C       35.40408006      15.88518258       7.50000000        0
C       36.12008427      14.64598315       7.50000000        0
C       39.69709270       8.44898174       7.50000000        0
C       38.26608848       8.44898174       7.50000000        0
C       37.55108848       9.68818118       7.50000000        0
C       38.26608848      10.92738062       7.50000000        0
C       39.69709270      10.92738062       7.50000000        0
C       40.41309691       9.68818118       7.50000000        0
C       37.55108848      12.16758427       7.50000000        0
C       38.26608848      13.40678371       7.50000000        0
C       39.69709270      13.40678371       7.50000000        0
C       40.41309691      12.16758427       7.50000000        0
C       37.55108848      14.64598315       7.50000000        0
C       38.26608848      15.88518258       7.50000000        0
C       39.69709270      15.88518258       7.50000000        0
C       40.41309691      14.64598315       7.50000000        0
C       43.99010534       8.44898174       7.50000000        0
C       42.55910112       8.44898174       7.50000000        0
C       41.84410112       9.68818118       7.50000000        0
C       42.55910112      10.92738062       7.50000000        0
C       43.99010534      10.92738062       7.50000000        0
C       44.70610955       9.68818118       7.50000000        0
C       41.84410112      12.16758427       7.50000000        0
C       42.55910112      13.40678371       7.50000000        0
C       43.99010534      13.40678371       7.50000000        0
C       44.70610955      12.16758427       7.50000000        0
C       41.84410112      14.64598315       7.50000000        0
C       42.55910112      15.88518258       7.50000000        0
C       43.99010534      15.88518258       7.50000000        0
C       44.70610955      14.64598315       7.50000000        0
C       48.28311798       8.44898174       7.50000000        0
C       46.85211376       8.44898174       7.50000000        0
C       46.13711376       9.68818118       7.50000000        0
C       46.85211376      10.92738062       7.50000000        0
C       48.28311798      10.92738062       7.50000000        0
C       48.99912219       9.68818118       7.50000000        0
C       46.13711376      12.16758427       7.50000000        0
C       46.85211376      13.40678371       7.50000000        0
C       48.28311798      13.40678371       7.50000000        0
C       48.99912219      12.16758427       7.50000000        0
C       46.13711376      14.64598315       7.50000000        0
C       46.85211376      15.88518258       7.50000000        0
C       48.28311798      15.88518258       7.50000000        0
C       48.99912219      14.64598315       7.50000000        0
C       52.57613062       8.44898174       7.50000000        0
C       51.14512640       8.44898174       7.50000000        0
C       50.43012640       9.68818118       7.50000000        0
C       51.14512640      10.92738062       7.50000000        0
C       52.57613062      10.92738062       7.50000000        0
C       53.29213483       9.68818118       7.50000000        0
C       50.43012640      12.16758427       7.50000000        0
C       51.14512640      13.40678371       7.50000000        0
C       52.57613062      13.40678371       7.50000000        0
C       53.29213483      12.16758427       7.50000000        0
C       50.43012640      14.64598315       7.50000000        0
C       51.14512640      15.88518258       7.50000000        0
C       52.57613062      15.88518258       7.50000000        0
C       53.29213483      14.64598315       7.50000000        0
C       56.86914326       8.44898174       7.50000000        0
C       55.43813904       8.44898174       7.50000000        0
C       54.72313904       9.68818118       7.50000000        0
C       55.43813904      10.92738062       7.50000000        0
C       56.86914326      10.92738062       7.50000000        0
C       57.58514747       9.68818118       7.50000000        0
C       54.72313904      12.16758427       7.50000000        0
C       55.43813904      13.40678371       7.50000000        0
C       56.86914326      13.40678371       7.50000000        0
C       54.72313904      14.64598315       7.50000000        0
C       55.43813904      15.88518258       7.50000000        0
C       56.86914326      15.88518258       7.50000000        0
C       57.58514747      14.64598315       7.50000000        0
C       28.24905899       7.50000000       7.50000000        1
C       36.83508427      16.83416433       7.50000000        2
