44
Lattice="34.13930774518 0.0 0.0 0.0 23.63506517714569 0.0 0.0 0.0 15.0" Properties=species:S:1:pos:R:3:tags:I:1 pbc="T T T"
C       23.69137342      12.73570058       7.50000000        0
C       25.02339888      12.10893055       7.50000000        0
C       19.96637786      11.71372032       7.50000000        0
C       21.13252635      12.55813429       7.50000000        0
C       22.48125083      11.94249695       7.50000000        0
C       25.18426614      10.67615432       7.50000000        0
C       26.51295180      10.03825161       7.50000000        0
C       26.63930775       8.60658864       7.50000000        0
C       25.44087447       7.80280896       7.50000000        0
C       22.66104366      10.50415437       7.50000000        0
C       23.98750277       9.86068532       7.50000000        0
C       24.10105614       8.41900294       7.50000000        0
C       20.18068200      10.29986965       7.50000000        0
C       21.49099873       9.66196694       7.50000000        0
C       21.55222848       8.22696417       7.50000000        0
C       20.29089555       7.50000000       7.50000000        0
C       18.97167268       8.16963085       7.50000000        0
C       18.92435878       9.60240709       7.50000000        0
C       17.71924590      13.13647715       7.50000000        0
C       18.51077962      11.91466524       7.50000000        0
C       17.87287691      10.62216081       7.50000000        0
C       16.41616541      10.49580486       7.50000000        0
C       15.62463168      11.71761676       7.50000000        0
C       16.26309103      13.01012120       7.50000000        0
C       14.16959008      11.91967495       7.50000000        0
C       13.00344159      11.07637425       7.50000000        0
C       11.65527374      11.69368150       7.50000000        0
C       10.44570779      10.90159114       7.50000000        0
C        9.11423896      11.53003106       7.50000000        0
C       13.84618566      16.13506518       7.50000000        0
C       15.16485190      15.46376442       7.50000000        0
C       15.21160916      14.03098819       7.50000000        0
C       13.95584258      13.33408226       7.50000000        0
C       12.58485273      15.40921428       7.50000000        0
C       12.64552585      13.97365487       7.50000000        0
C       11.47659419      13.13258071       7.50000000        0
C        8.69787664      15.83837919       7.50000000        0
C       10.03769497      15.21995868       7.50000000        0
C       10.15069170      13.77771966       7.50000000        0
C        8.95392833      12.96336393       7.50000000        0
C        7.62635595      13.60349318       7.50000000        0
C        7.50000000      15.03571278       7.50000000        0
C       22.89316009       7.61466663       7.50000000        2
C       11.24503439      16.02262508       7.50000000        1